(set-logic HORN)
; KVARS

(declare-fun k_99 (Int Int Int Int Int Int Int Int Int Int Int Int Int Int) Bool)

(declare-fun k_97 (Int Int Int Int Int Int Int Int Int Int Int Int Int) Bool)

(declare-fun k_95 (Int Int Int Int Int Int Int Int Int Int Int Int Int) Bool)

(declare-fun k_87 (Int Int Int Int Int Int Int Int) Bool)

(declare-fun k_85 (Int Int Int Int Int Int Int Int Int) Bool)

(declare-fun k_83 (Int Int Int Int Int Int Int Int) Bool)

(declare-fun k_79 (Int Int Int Int Int Int Int Int Int) Bool)

(declare-fun k_77 (Int Int Int Int Int Int Int Int) Bool)

(declare-fun k_73 (Int Int Int Int Int Int Int) Bool)

(declare-fun k_70 (Int Int Int Int Int Int) Bool)

(declare-fun k_381 (Int Int Int Int Int Int Int) Bool)

(declare-fun k_379 (Int Int Int Int Int Int) Bool)

(declare-fun k_376 (Int Int Int Int Int Int) Bool)

(declare-fun k_374 (Int Int Int Int Int Int Int Int Int) Bool)

(declare-fun k_372 (Int Int Int Int Int Int Int Int) Bool)

(declare-fun k_369 (Int Int Int Int Int Int Int Int Int) Bool)

(declare-fun k_367 (Int Int Int Int Int Int Int Int) Bool)

(declare-fun k_363 (Int Int Int Int Int Int Int) Bool)

(declare-fun k_360 (Int Int Int Int Int Int) Bool)

(declare-fun k_356 (Int Int Int Int Int Int Int Int) Bool)

(declare-fun k_352 (Int Int Int Int Int Int Int) Bool)

(declare-fun k_350 (Int Int Int Int Int Int) Bool)

(declare-fun k_345 (Int Int Int Int Int Int Int Int) Bool)

(declare-fun k_343 (Int Int Int Int Int Int Int) Bool)

(declare-fun k_340 (Int Int Int Int Int Int Int) Bool)

(declare-fun k_338 (Int Int Int Int Int Int Int) Bool)

(declare-fun k_335 (Int Int Int Int Int Int Int Int Int) Bool)

(declare-fun k_333 (Int Int Int Int Int Int Int Int) Bool)

(declare-fun k_330 (Int Int Int Int Int Int Int Int Int) Bool)

(declare-fun k_328 (Int Int Int Int Int Int Int Int) Bool)

(declare-fun k_324 (Int Int Int Int Int Int Int) Bool)

(declare-fun k_321 (Int Int Int Int Int Int) Bool)

(declare-fun k_318 (Int Int Int Int Int Int Int Int) Bool)

(declare-fun k_315 (Int Int Int Int Int Int Int Int Int Int Int Int Int Int Int) Bool)

(declare-fun k_310 (Int Int Int Int Int Int Int Int Int Int Int Int Int Int Int Int) Bool)

(declare-fun k_308 (Int Int Int Int Int Int Int Int Int Int Int Int Int Int Int) Bool)

(declare-fun k_306 (Int Int Int Int Int Int Int Int Int Int Int Int Int Int Int) Bool)

(declare-fun k_298 (Int Int Int Int Int Int Int Int Int Int) Bool)

(declare-fun k_296 (Int Int Int Int Int Int Int Int Int Int Int) Bool)

(declare-fun k_294 (Int Int Int Int Int Int Int Int Int Int) Bool)

(declare-fun k_290 (Int Int Int Int Int Int Int Int Int Int Int) Bool)

(declare-fun k_288 (Int Int Int Int Int Int Int Int Int Int) Bool)

(declare-fun k_284 (Int Int Int Int Int Int Int Int Int) Bool)

(declare-fun k_281 (Int Int Int Int Int Int Int Int) Bool)

(declare-fun k_278 (Int Int Int Int Int Int Int Int Int) Bool)

(declare-fun k_276 (Int Int Int Int Int Int Int Int) Bool)

(declare-fun k_271 (Int Int Int Int Int Int Int Int Int Int Int) Bool)

(declare-fun k_269 (Int Int Int Int Int Int Int Int Int Int) Bool)

(declare-fun k_266 (Int Int Int Int Int Int Int Int Int Int Int) Bool)

(declare-fun k_264 (Int Int Int Int Int Int Int Int Int Int) Bool)

(declare-fun k_260 (Int Int Int Int Int Int Int Int Int) Bool)

(declare-fun k_257 (Int Int Int Int Int Int Int Int) Bool)

(declare-fun k_254 (Int Int Int Int Int Int Int Int Int) Bool)

(declare-fun k_252 (Int Int Int Int Int Int Int Int) Bool)

(declare-fun k_248 (Int Int Int Int Int Int Int Int Int Int Int) Bool)

(declare-fun k_246 (Int Int Int Int Int Int Int Int Int Int) Bool)

(declare-fun k_243 (Int Int Int Int Int Int Int Int Int Int Int) Bool)

(declare-fun k_241 (Int Int Int Int Int Int Int Int Int Int) Bool)

(declare-fun k_238 (Int Int Int Int Int Int Int Int Int) Bool)

(declare-fun k_236 (Int Int Int Int Int Int Int Int) Bool)

(declare-fun k_234 (Int Int Int Int Int Int Int Int Int) Bool)

(declare-fun k_232 (Int Int Int Int Int Int Int Int) Bool)

(declare-fun k_229 (Int Int Int Int Int Int Int Int Int Int Int) Bool)

(declare-fun k_227 (Int Int Int Int Int Int Int Int Int Int) Bool)

(declare-fun k_224 (Int Int Int Int Int Int Int Int Int Int Int) Bool)

(declare-fun k_222 (Int Int Int Int Int Int Int Int Int Int) Bool)

(declare-fun k_218 (Int Int Int Int Int Int Int Int Int) Bool)

(declare-fun k_215 (Int Int Int Int Int Int Int Int) Bool)

(declare-fun k_212 (Int Int Int Int Int Int Int Int Int) Bool)

(declare-fun k_210 (Int Int Int Int Int Int Int Int) Bool)

(declare-fun k_203 (Int Int Int Int Int Int Int Int) Bool)

(declare-fun k_199 (Int Int Int Int Int Int Int) Bool)

(declare-fun k_197 (Int Int Int Int Int Int) Bool)

(declare-fun k_190 (Int Int Int Int Int Int Int Int Int Int Int Int Int Int) Bool)

(declare-fun k_188 (Int Int Int Int Int Int Int Int Int Int Int Int Int) Bool)

(declare-fun k_186 (Int Int Int Int Int Int Int Int Int Int Int Int Int) Bool)

(declare-fun k_178 (Int Int Int Int Int Int Int Int) Bool)

(declare-fun k_176 (Int Int Int Int Int Int Int Int Int) Bool)

(declare-fun k_174 (Int Int Int Int Int Int Int Int) Bool)

(declare-fun k_170 (Int Int Int Int Int Int Int Int Int) Bool)

(declare-fun k_168 (Int Int Int Int Int Int Int Int) Bool)

(declare-fun k_164 (Int Int Int Int Int Int Int) Bool)

(declare-fun k_161 (Int Int Int Int Int Int) Bool)

(declare-fun k_158 (Int Int Int Int Int Int Int Int) Bool)

(declare-fun k_154 (Int Int Int Int Int Int Int) Bool)

(declare-fun k_152 (Int Int Int Int Int Int) Bool)

(declare-fun k_145 (Int Int Int Int Int Int Int Int Int Int Int Int Int Int Int) Bool)

(declare-fun k_143 (Int Int Int Int Int Int Int Int Int Int Int Int Int Int) Bool)

(declare-fun k_141 (Int Int Int Int Int Int Int Int Int Int Int Int Int Int) Bool)

(declare-fun k_133 (Int Int Int Int Int Int Int Int Int) Bool)

(declare-fun k_130 (Int Int Int Int Int Int Int Int Int) Bool)

(declare-fun k_128 (Int Int Int Int Int Int Int Int) Bool)

(declare-fun k_124 (Int Int Int Int Int Int Int Int Int) Bool)

(declare-fun k_122 (Int Int Int Int Int Int Int Int) Bool)

(declare-fun k_118 (Int Int Int Int Int Int Int) Bool)

(declare-fun k_115 (Int Int Int Int Int Int) Bool)

(declare-fun k_112 (Int Int Int Int Int Int Int Int) Bool)

(declare-fun k_108 (Int Int Int Int Int Int Int) Bool)

(declare-fun k_106 (Int Int Int Int Int Int) Bool)

; CONSTRAINTS

; cid = 80
(assert (forall ((EQ_6U Int) 
(False_68 Int) (GT_6W Int) (LT_6S Int) (Prop (Array Int Bool)) (True_6u Int) 
(VV_F80 Int) (cmp (Array Int Int)) (i_atM Int) (lq_anf__duW Int) 
(lq_anf__duX Int) (lq_anf__duY Int) (lq_anf__duZ Int) (n_atN Int) (p Int) 
(x0 Int)) 
 (=> (and (k_281 EQ_6U False_68 GT_6W LT_6S True_6u i_atM p x0) (and (k_284 EQ_6U False_68 GT_6W LT_6S True_6u n_atN i_atM p x0) (and (= (select cmp EQ_6U) EQ_6U) (and (not (select Prop False_68)) (and (= (select cmp GT_6W) GT_6W) (and (= (select cmp LT_6S) LT_6S) (and (select Prop True_6u) (and (= (select Prop lq_anf__duW) (>= i_atM n_atN)) (and (= (select Prop lq_anf__duX) (>= i_atM n_atN)) (and (= lq_anf__duX lq_anf__duW) (and (not (select Prop lq_anf__duX)) (and (not (select Prop lq_anf__duX)) (and (= lq_anf__duY 1) (and (= lq_anf__duZ (+ i_atM lq_anf__duY)) (and (k_281 EQ_6U False_68 GT_6W LT_6S True_6u VV_F80 p x0) (and (= VV_F80 i_atM) true)))))))))))))))) (k_276 EQ_6U False_68 GT_6W LT_6S True_6u VV_F80 p x0)))
)


; cid = 79
(assert (forall ((EQ_6U Int) (False_68 Int) (GT_6W Int) 
(LT_6S Int) (Prop (Array Int Bool)) (True_6u Int) (VV_F79 Int) 
(cmp (Array Int Int)) (i_atM Int) (lq_anf__duW Int) (lq_anf__duX Int) 
(lq_anf__duY Int) (lq_anf__duZ Int) (lq_anf__dv0 Int) (n_atN Int) (p Int) 
(x0 Int)) 
 (=> (and (k_281 EQ_6U False_68 GT_6W LT_6S True_6u i_atM p x0) (and (k_278 EQ_6U False_68 GT_6W LT_6S True_6u lq_anf__dv0 i_atM p x0) (and (k_284 EQ_6U False_68 GT_6W LT_6S True_6u n_atN i_atM p x0) (and (= (select cmp EQ_6U) EQ_6U) (and (not (select Prop False_68)) (and (= (select cmp GT_6W) GT_6W) (and (= (select cmp LT_6S) LT_6S) (and (select Prop True_6u) (and (= (select Prop lq_anf__duW) (>= i_atM n_atN)) (and (= (select Prop lq_anf__duX) (>= i_atM n_atN)) (and (= lq_anf__duX lq_anf__duW) (and (not (select Prop lq_anf__duX)) (and (not (select Prop lq_anf__duX)) (and (= lq_anf__duY 1) (and (= lq_anf__duZ (+ i_atM lq_anf__duY)) (and (k_281 EQ_6U False_68 GT_6W LT_6S True_6u VV_F79 p x0) (and (= VV_F79 i_atM) true))))))))))))))))) (k_308 EQ_6U False_68 GT_6W LT_6S True_6u VV_F79 i_atM lq_anf__duW lq_anf__duX lq_anf__duY lq_anf__duZ lq_anf__dv0 n_atN p x0)))
)


; cid = 76
(assert (forall ((EQ_6U Int) (False_68 Int) (GT_6W Int) 
(LT_6S Int) (Prop (Array Int Bool)) (True_6u Int) (VV_F76 Int) 
(cmp (Array Int Int)) (i_atM Int) (lq_anf__duW Int) (lq_anf__duX Int) 
(lq_anf__duY Int) (lq_anf__duZ Int) (lq_anf__dv0 Int) (n_atN Int) (p Int) 
(x0 Int)) 
 (=> (and (k_281 EQ_6U False_68 GT_6W LT_6S True_6u i_atM p x0) (and (k_278 EQ_6U False_68 GT_6W LT_6S True_6u lq_anf__dv0 i_atM p x0) (and (k_284 EQ_6U False_68 GT_6W LT_6S True_6u n_atN i_atM p x0) (and (= (select cmp EQ_6U) EQ_6U) (and (not (select Prop False_68)) (and (= (select cmp GT_6W) GT_6W) (and (= (select cmp LT_6S) LT_6S) (and (select Prop True_6u) (and (= (select Prop lq_anf__duW) (>= i_atM n_atN)) (and (= (select Prop lq_anf__duX) (>= i_atM n_atN)) (and (= lq_anf__duX lq_anf__duW) (and (not (select Prop lq_anf__duX)) (and (not (select Prop lq_anf__duX)) (and (= lq_anf__duY 1) (and (= lq_anf__duZ (+ i_atM lq_anf__duY)) (and (not (= VV_F76 i_atM)) (and (k_308 EQ_6U False_68 GT_6W LT_6S True_6u VV_F76 i_atM lq_anf__duW lq_anf__duX lq_anf__duY lq_anf__duZ lq_anf__dv0 n_atN p x0) true))))))))))))))))) (k_288 EQ_6U False_68 GT_6W LT_6S True_6u VV_F76 i_atM n_atN p x0)))
)


; cid = 75
(assert (forall ((EQ_6U Int) (False_68 Int) (GT_6W Int) 
(LT_6S Int) (Prop (Array Int Bool)) (True_6u Int) (VV_F75 Int) 
(cmp (Array Int Int)) (i_atM Int) (lq_anf__duW Int) (lq_anf__duX Int) 
(lq_anf__duY Int) (lq_anf__duZ Int) (lq_anf__dv0 Int) (lq_tmp_x230 Int) 
(n_atN Int) (p Int) 
(x0 Int)) 
 (=> (and (k_281 EQ_6U False_68 GT_6W LT_6S True_6u i_atM p x0) (and (k_278 EQ_6U False_68 GT_6W LT_6S True_6u lq_anf__dv0 i_atM p x0) (and (k_232 EQ_6U False_68 GT_6W LT_6S True_6u lq_tmp_x230 p x0) (and (k_284 EQ_6U False_68 GT_6W LT_6S True_6u n_atN i_atM p x0) (and (= (select cmp EQ_6U) EQ_6U) (and (not (select Prop False_68)) (and (= (select cmp GT_6W) GT_6W) (and (= (select cmp LT_6S) LT_6S) (and (select Prop True_6u) (and (= (select Prop lq_anf__duW) (>= i_atM n_atN)) (and (= (select Prop lq_anf__duX) (>= i_atM n_atN)) (and (= lq_anf__duX lq_anf__duW) (and (not (select Prop lq_anf__duX)) (and (not (select Prop lq_anf__duX)) (and (= lq_anf__duY 1) (and (= lq_anf__duZ (+ i_atM lq_anf__duY)) (and (k_278 EQ_6U False_68 GT_6W LT_6S True_6u VV_F75 lq_tmp_x230 p x0) true))))))))))))))))) (k_234 EQ_6U False_68 GT_6W LT_6S True_6u VV_F75 lq_tmp_x230 p x0)))
)


; cid = 75
(assert (forall ((EQ_6U Int) (False_68 Int) (GT_6W Int) 
(LT_6S Int) (Prop (Array Int Bool)) (True_6u Int) (VV_F75 Int) 
(cmp (Array Int Int)) (i_atM Int) (lq_anf__duW Int) (lq_anf__duX Int) 
(lq_anf__duY Int) (lq_anf__duZ Int) (lq_anf__dv0 Int) (lq_tmp_x230 Int) 
(n_atN Int) (p Int) 
(x0 Int)) 
 (=> (and (k_281 EQ_6U False_68 GT_6W LT_6S True_6u i_atM p x0) (and (k_278 EQ_6U False_68 GT_6W LT_6S True_6u lq_anf__dv0 i_atM p x0) (and (k_232 EQ_6U False_68 GT_6W LT_6S True_6u lq_tmp_x230 p x0) (and (k_284 EQ_6U False_68 GT_6W LT_6S True_6u n_atN i_atM p x0) (and (= (select cmp EQ_6U) EQ_6U) (and (not (select Prop False_68)) (and (= (select cmp GT_6W) GT_6W) (and (= (select cmp LT_6S) LT_6S) (and (select Prop True_6u) (and (= (select Prop lq_anf__duW) (>= i_atM n_atN)) (and (= (select Prop lq_anf__duX) (>= i_atM n_atN)) (and (= lq_anf__duX lq_anf__duW) (and (not (select Prop lq_anf__duX)) (and (not (select Prop lq_anf__duX)) (and (= lq_anf__duY 1) (and (= lq_anf__duZ (+ i_atM lq_anf__duY)) (and (k_278 EQ_6U False_68 GT_6W LT_6S True_6u VV_F75 lq_tmp_x230 p x0) true))))))))))))))))) (k_315 EQ_6U False_68 GT_6W LT_6S True_6u VV_F75 i_atM lq_anf__duW lq_anf__duX lq_anf__duY lq_anf__duZ lq_anf__dv0 n_atN p x0)))
)


; cid = 74
(assert (forall ((EQ_6U Int) (False_68 Int) (GT_6W Int) 
(LT_6S Int) (Prop (Array Int Bool)) (True_6u Int) (VV_F74 Int) 
(cmp (Array Int Int)) (i_atM Int) (lq_anf__duW Int) (lq_anf__duX Int) 
(lq_anf__duY Int) (lq_anf__duZ Int) (lq_anf__dv0 Int) (n_atN Int) (p Int) 
(x0 Int)) 
 (=> (and (k_281 EQ_6U False_68 GT_6W LT_6S True_6u i_atM p x0) (and (k_278 EQ_6U False_68 GT_6W LT_6S True_6u lq_anf__dv0 i_atM p x0) (and (k_284 EQ_6U False_68 GT_6W LT_6S True_6u n_atN i_atM p x0) (and (= (select cmp EQ_6U) EQ_6U) (and (not (select Prop False_68)) (and (= (select cmp GT_6W) GT_6W) (and (= (select cmp LT_6S) LT_6S) (and (select Prop True_6u) (and (= (select Prop lq_anf__duW) (>= i_atM n_atN)) (and (= (select Prop lq_anf__duX) (>= i_atM n_atN)) (and (= lq_anf__duX lq_anf__duW) (and (not (select Prop lq_anf__duX)) (and (not (select Prop lq_anf__duX)) (and (= lq_anf__duY 1) (and (= lq_anf__duZ (+ i_atM lq_anf__duY)) (and (k_232 EQ_6U False_68 GT_6W LT_6S True_6u VV_F74 p x0) true)))))))))))))))) (k_276 EQ_6U False_68 GT_6W LT_6S True_6u VV_F74 p x0)))
)


; cid = 73
(assert (forall ((EQ_6U Int) (False_68 Int) (GT_6W Int) 
(LT_6S Int) (Prop (Array Int Bool)) (True_6u Int) (VV_F73 Int) 
(cmp (Array Int Int)) (i_atM Int) (lq_anf__duW Int) (lq_anf__duX Int) 
(lq_anf__duY Int) (lq_anf__duZ Int) (lq_anf__dv0 Int) (n_atN Int) (p Int) 
(x0 Int)) 
 (=> (and (k_281 EQ_6U False_68 GT_6W LT_6S True_6u i_atM p x0) (and (k_278 EQ_6U False_68 GT_6W LT_6S True_6u lq_anf__dv0 i_atM p x0) (and (k_284 EQ_6U False_68 GT_6W LT_6S True_6u n_atN i_atM p x0) (and (= (select cmp EQ_6U) EQ_6U) (and (not (select Prop False_68)) (and (= (select cmp GT_6W) GT_6W) (and (= (select cmp LT_6S) LT_6S) (and (select Prop True_6u) (and (= (select Prop lq_anf__duW) (>= i_atM n_atN)) (and (= (select Prop lq_anf__duX) (>= i_atM n_atN)) (and (= lq_anf__duX lq_anf__duW) (and (not (select Prop lq_anf__duX)) (and (not (select Prop lq_anf__duX)) (and (= lq_anf__duY 1) (and (= lq_anf__duZ (+ i_atM lq_anf__duY)) (and (= VV_F73 (+ i_atM lq_anf__duY)) (and (= VV_F73 lq_anf__duZ) true))))))))))))))))) (k_236 EQ_6U False_68 GT_6W LT_6S True_6u VV_F73 p x0)))
)


; cid = 72
(assert (forall ((EQ_6U Int) (False_68 Int) (GT_6W Int) 
(LT_6S Int) (Prop (Array Int Bool)) (True_6u Int) (VV_F72 Int) 
(cmp (Array Int Int)) (i_atM Int) (lq_anf__duW Int) (lq_anf__duX Int) 
(lq_anf__duY Int) (lq_anf__duZ Int) (lq_anf__dv0 Int) (n_atN Int) (p Int) 
(x0 Int)) 
 (=> (and (k_281 EQ_6U False_68 GT_6W LT_6S True_6u i_atM p x0) (and (k_278 EQ_6U False_68 GT_6W LT_6S True_6u lq_anf__dv0 i_atM p x0) (and (k_284 EQ_6U False_68 GT_6W LT_6S True_6u n_atN i_atM p x0) (and (= (select cmp EQ_6U) EQ_6U) (and (not (select Prop False_68)) (and (= (select cmp GT_6W) GT_6W) (and (= (select cmp LT_6S) LT_6S) (and (select Prop True_6u) (and (= (select Prop lq_anf__duW) (>= i_atM n_atN)) (and (= (select Prop lq_anf__duX) (>= i_atM n_atN)) (and (= lq_anf__duX lq_anf__duW) (and (not (select Prop lq_anf__duX)) (and (not (select Prop lq_anf__duX)) (and (= lq_anf__duY 1) (and (= lq_anf__duZ (+ i_atM lq_anf__duY)) (and (k_284 EQ_6U False_68 GT_6W LT_6S True_6u VV_F72 i_atM p x0) (and (= VV_F72 n_atN) true))))))))))))))))) (k_238 EQ_6U False_68 GT_6W LT_6S True_6u VV_F72 lq_anf__duZ p x0)))
)


; cid = 70
(assert (forall ((EQ_6U Int) (False_68 Int) (GT_6W Int) 
(LT_6S Int) (Prop (Array Int Bool)) (True_6u Int) (VV_F70 Int) 
(cmp (Array Int Int)) (i_atM Int) (lq_anf__duW Int) (lq_anf__duX Int) 
(lq_anf__duY Int) (lq_anf__duZ Int) (lq_anf__dv0 Int) (n_atN Int) (p Int) 
(x0 Int)) 
 (=> (and (k_281 EQ_6U False_68 GT_6W LT_6S True_6u i_atM p x0) (and (k_278 EQ_6U False_68 GT_6W LT_6S True_6u lq_anf__dv0 i_atM p x0) (and (k_284 EQ_6U False_68 GT_6W LT_6S True_6u n_atN i_atM p x0) (and (= (select cmp EQ_6U) EQ_6U) (and (not (select Prop False_68)) (and (= (select cmp GT_6W) GT_6W) (and (= (select cmp LT_6S) LT_6S) (and (select Prop True_6u) (and (= (select Prop lq_anf__duW) (>= i_atM n_atN)) (and (= (select Prop lq_anf__duX) (>= i_atM n_atN)) (and (= lq_anf__duX lq_anf__duW) (and (not (select Prop lq_anf__duX)) (and (not (select Prop lq_anf__duX)) (and (= lq_anf__duY 1) (and (= lq_anf__duZ (+ i_atM lq_anf__duY)) (and (k_241 EQ_6U False_68 GT_6W LT_6S True_6u VV_F70 lq_anf__duZ n_atN p x0) true)))))))))))))))) (k_308 EQ_6U False_68 GT_6W LT_6S True_6u VV_F70 i_atM lq_anf__duW lq_anf__duX lq_anf__duY lq_anf__duZ lq_anf__dv0 n_atN p x0)))
)


; cid = 68
(assert (forall ((EQ_6U Int) (False_68 Int) (GT_6W Int) 
(LT_6S Int) (Prop (Array Int Bool)) (True_6u Int) (VV_F68 Int) 
(cmp (Array Int Int)) (i_atM Int) (lq_anf__duW Int) (lq_anf__duX Int) 
(lq_anf__duY Int) (lq_anf__duZ Int) (lq_anf__dv0 Int) (n_atN Int) (p Int) 
(x0 Int)) 
 (=> (and (k_281 EQ_6U False_68 GT_6W LT_6S True_6u i_atM p x0) (and (k_278 EQ_6U False_68 GT_6W LT_6S True_6u lq_anf__dv0 i_atM p x0) (and (k_284 EQ_6U False_68 GT_6W LT_6S True_6u n_atN i_atM p x0) (and (= (select cmp EQ_6U) EQ_6U) (and (not (select Prop False_68)) (and (= (select cmp GT_6W) GT_6W) (and (= (select cmp LT_6S) LT_6S) (and (select Prop True_6u) (and (= (select Prop lq_anf__duW) (>= i_atM n_atN)) (and (= (select Prop lq_anf__duX) (>= i_atM n_atN)) (and (= lq_anf__duX lq_anf__duW) (and (not (select Prop lq_anf__duX)) (and (not (select Prop lq_anf__duX)) (and (= lq_anf__duY 1) (and (= lq_anf__duZ (+ i_atM lq_anf__duY)) (and (k_294 EQ_6U False_68 GT_6W LT_6S True_6u VV_F68 i_atM n_atN p x0) true)))))))))))))))) (k_246 EQ_6U False_68 GT_6W LT_6S True_6u VV_F68 lq_anf__duZ n_atN p x0)))
)


; cid = 66
(assert (forall ((EQ_6U Int) (False_68 Int) (GT_6W Int) 
(LT_6S Int) (Prop (Array Int Bool)) (True_6u Int) (VV_F66 Int) 
(cmp (Array Int Int)) (i_atM Int) (lq_anf__duW Int) (lq_anf__duX Int) 
(n_atN Int) (p Int) 
(x0 Int)) 
 (=> (and (k_281 EQ_6U False_68 GT_6W LT_6S True_6u i_atM p x0) (and (k_284 EQ_6U False_68 GT_6W LT_6S True_6u n_atN i_atM p x0) (and (= (select cmp EQ_6U) EQ_6U) (and (not (select Prop False_68)) (and (= (select cmp GT_6W) GT_6W) (and (= (select cmp LT_6S) LT_6S) (and (select Prop True_6u) (and (= (select Prop lq_anf__duW) (>= i_atM n_atN)) (and (= (select Prop lq_anf__duX) (>= i_atM n_atN)) (and (= lq_anf__duX lq_anf__duW) (and (select Prop lq_anf__duX) (and (select Prop lq_anf__duX) (and (k_294 EQ_6U False_68 GT_6W LT_6S True_6u VV_F66 i_atM n_atN p x0) true))))))))))))) (k_288 EQ_6U False_68 GT_6W LT_6S True_6u VV_F66 i_atM n_atN p x0)))
)


; cid = 64
(assert (forall ((EQ_6U Int) (False_68 Int) (GT_6W Int) 
(LT_6S Int) (Prop (Array Int Bool)) (True_6u Int) (VV_F64 Int) 
(cmp (Array Int Int)) (i_atM Int) (n_atN Int) (p Int) 
(x0 Int)) 
 (=> (and (k_236 EQ_6U False_68 GT_6W LT_6S True_6u i_atM p x0) (and (k_238 EQ_6U False_68 GT_6W LT_6S True_6u n_atN i_atM p x0) (and (= (select cmp EQ_6U) EQ_6U) (and (not (select Prop False_68)) (and (= (select cmp GT_6W) GT_6W) (and (= (select cmp LT_6S) LT_6S) (and (select Prop True_6u) (and (k_246 EQ_6U False_68 GT_6W LT_6S True_6u VV_F64 i_atM n_atN p x0) true)))))))) (k_294 EQ_6U False_68 GT_6W LT_6S True_6u VV_F64 i_atM n_atN p x0)))
)


; cid = 62
(assert (forall ((EQ_6U Int) (False_68 Int) (GT_6W Int) 
(LT_6S Int) (Prop (Array Int Bool)) (True_6u Int) (VV_F62 Int) 
(cmp (Array Int Int)) (i_atM Int) (n_atN Int) (p Int) 
(x0 Int)) 
 (=> (and (k_236 EQ_6U False_68 GT_6W LT_6S True_6u i_atM p x0) (and (k_238 EQ_6U False_68 GT_6W LT_6S True_6u n_atN i_atM p x0) (and (= (select cmp EQ_6U) EQ_6U) (and (not (select Prop False_68)) (and (= (select cmp GT_6W) GT_6W) (and (= (select cmp LT_6S) LT_6S) (and (select Prop True_6u) (and (k_288 EQ_6U False_68 GT_6W LT_6S True_6u VV_F62 i_atM n_atN p x0) true)))))))) (k_241 EQ_6U False_68 GT_6W LT_6S True_6u VV_F62 i_atM n_atN p x0)))
)


; cid = 61
(assert (forall ((EQ_6U Int) (False_68 Int) (GT_6W Int) 
(LT_6S Int) (Prop (Array Int Bool)) (True_6u Int) (VV_F61 Int) 
(cmp (Array Int Int)) (i_atM Int) (p Int) 
(x0 Int)) 
 (=> (and (k_236 EQ_6U False_68 GT_6W LT_6S True_6u i_atM p x0) (and (= (select cmp EQ_6U) EQ_6U) (and (not (select Prop False_68)) (and (= (select cmp GT_6W) GT_6W) (and (= (select cmp LT_6S) LT_6S) (and (select Prop True_6u) (and (k_238 EQ_6U False_68 GT_6W LT_6S True_6u VV_F61 i_atM p x0) true))))))) (k_284 EQ_6U False_68 GT_6W LT_6S True_6u VV_F61 i_atM p x0)))
)


; cid = 60
(assert (forall ((EQ_6U Int) (False_68 Int) (GT_6W Int) 
(LT_6S Int) (Prop (Array Int Bool)) (True_6u Int) (VV_F60 Int) 
(cmp (Array Int Int)) (p Int) 
(x0 Int)) 
 (=> (and (= (select cmp EQ_6U) EQ_6U) (and (not (select Prop False_68)) (and (= (select cmp GT_6W) GT_6W) (and (= (select cmp LT_6S) LT_6S) (and (select Prop True_6u) (and (k_236 EQ_6U False_68 GT_6W LT_6S True_6u VV_F60 p x0) true)))))) (k_281 EQ_6U False_68 GT_6W LT_6S True_6u VV_F60 p x0)))
)


; cid = 59
(assert (forall ((EQ_6U Int) (False_68 Int) (GT_6W Int) 
(LT_6S Int) (Prop (Array Int Bool)) (True_6u Int) (VV_F59 Int) 
(cmp (Array Int Int)) (lq_tmp_x274 Int) (p Int) 
(x0 Int)) 
 (=> (and (k_276 EQ_6U False_68 GT_6W LT_6S True_6u lq_tmp_x274 p x0) (and (= (select cmp EQ_6U) EQ_6U) (and (not (select Prop False_68)) (and (= (select cmp GT_6W) GT_6W) (and (= (select cmp LT_6S) LT_6S) (and (select Prop True_6u) (and (k_234 EQ_6U False_68 GT_6W LT_6S True_6u VV_F59 lq_tmp_x274 p x0) true))))))) (k_278 EQ_6U False_68 GT_6W LT_6S True_6u VV_F59 lq_tmp_x274 p x0)))
)


; cid = 58
(assert (forall ((EQ_6U Int) (False_68 Int) (GT_6W Int) 
(LT_6S Int) (Prop (Array Int Bool)) (True_6u Int) (VV_F58 Int) 
(cmp (Array Int Int)) (p Int) 
(x0 Int)) 
 (=> (and (= (select cmp EQ_6U) EQ_6U) (and (not (select Prop False_68)) (and (= (select cmp GT_6W) GT_6W) (and (= (select cmp LT_6S) LT_6S) (and (select Prop True_6u) (and (k_276 EQ_6U False_68 GT_6W LT_6S True_6u VV_F58 p x0) true)))))) (k_232 EQ_6U False_68 GT_6W LT_6S True_6u VV_F58 p x0)))
)


; cid = 56
(assert (forall ((EQ_6U Int) (False_68 Int) (GT_6W Int) 
(LT_6S Int) (Prop (Array Int Bool)) (True_6u Int) (VV_F56 Int) 
(cmp (Array Int Int)) (lq_tmp_x255 Int) (lq_tmp_x258 Int) (p Int) 
(x0 Int)) 
 (=> (and (k_257 EQ_6U False_68 GT_6W LT_6S True_6u lq_tmp_x255 p x0) (and (k_260 EQ_6U False_68 GT_6W LT_6S True_6u lq_tmp_x258 lq_tmp_x255 p x0) (and (= (select cmp EQ_6U) EQ_6U) (and (not (select Prop False_68)) (and (= (select cmp GT_6W) GT_6W) (and (= (select cmp LT_6S) LT_6S) (and (select Prop True_6u) (and (k_269 EQ_6U False_68 GT_6W LT_6S True_6u VV_F56 lq_tmp_x255 lq_tmp_x258 p x0) true)))))))) (k_246 EQ_6U False_68 GT_6W LT_6S True_6u VV_F56 lq_tmp_x255 lq_tmp_x258 p x0)))
)


; cid = 54
(assert (forall ((EQ_6U Int) (False_68 Int) (GT_6W Int) 
(LT_6S Int) (Prop (Array Int Bool)) (True_6u Int) (VV_F54 Int) 
(cmp (Array Int Int)) (lq_tmp_x255 Int) (lq_tmp_x258 Int) (p Int) 
(x0 Int)) 
 (=> (and (k_257 EQ_6U False_68 GT_6W LT_6S True_6u lq_tmp_x255 p x0) (and (k_260 EQ_6U False_68 GT_6W LT_6S True_6u lq_tmp_x258 lq_tmp_x255 p x0) (and (= (select cmp EQ_6U) EQ_6U) (and (not (select Prop False_68)) (and (= (select cmp GT_6W) GT_6W) (and (= (select cmp LT_6S) LT_6S) (and (select Prop True_6u) (and (k_241 EQ_6U False_68 GT_6W LT_6S True_6u VV_F54 lq_tmp_x255 lq_tmp_x258 p x0) true)))))))) (k_264 EQ_6U False_68 GT_6W LT_6S True_6u VV_F54 lq_tmp_x255 lq_tmp_x258 p x0)))
)


; cid = 53
(assert (forall ((EQ_6U Int) (False_68 Int) (GT_6W Int) 
(LT_6S Int) (Prop (Array Int Bool)) (True_6u Int) (VV_F53 Int) 
(cmp (Array Int Int)) (lq_tmp_x255 Int) (p Int) 
(x0 Int)) 
 (=> (and (k_257 EQ_6U False_68 GT_6W LT_6S True_6u lq_tmp_x255 p x0) (and (= (select cmp EQ_6U) EQ_6U) (and (not (select Prop False_68)) (and (= (select cmp GT_6W) GT_6W) (and (= (select cmp LT_6S) LT_6S) (and (select Prop True_6u) (and (k_260 EQ_6U False_68 GT_6W LT_6S True_6u VV_F53 lq_tmp_x255 p x0) true))))))) (k_238 EQ_6U False_68 GT_6W LT_6S True_6u VV_F53 lq_tmp_x255 p x0)))
)


; cid = 52
(assert (forall ((EQ_6U Int) (False_68 Int) (GT_6W Int) 
(LT_6S Int) (Prop (Array Int Bool)) (True_6u Int) (VV_F52 Int) 
(cmp (Array Int Int)) (p Int) 
(x0 Int)) 
 (=> (and (= (select cmp EQ_6U) EQ_6U) (and (not (select Prop False_68)) (and (= (select cmp GT_6W) GT_6W) (and (= (select cmp LT_6S) LT_6S) (and (select Prop True_6u) (and (k_257 EQ_6U False_68 GT_6W LT_6S True_6u VV_F52 p x0) true)))))) (k_236 EQ_6U False_68 GT_6W LT_6S True_6u VV_F52 p x0)))
)


; cid = 51
(assert (forall ((EQ_6U Int) (False_68 Int) (GT_6W Int) 
(LT_6S Int) (Prop (Array Int Bool)) (True_6u Int) (VV_F51 Int) 
(cmp (Array Int Int)) (lq_tmp_x230 Int) (p Int) 
(x0 Int)) 
 (=> (and (k_232 EQ_6U False_68 GT_6W LT_6S True_6u lq_tmp_x230 p x0) (and (= (select cmp EQ_6U) EQ_6U) (and (not (select Prop False_68)) (and (= (select cmp GT_6W) GT_6W) (and (= (select cmp LT_6S) LT_6S) (and (select Prop True_6u) (and (k_254 EQ_6U False_68 GT_6W LT_6S True_6u VV_F51 lq_tmp_x230 p x0) true))))))) (k_234 EQ_6U False_68 GT_6W LT_6S True_6u VV_F51 lq_tmp_x230 p x0)))
)


; cid = 51
(assert (forall ((EQ_6U Int) (False_68 Int) (GT_6W Int) 
(LT_6S Int) (Prop (Array Int Bool)) (True_6u Int) (VV_F51 Int) 
(cmp (Array Int Int)) (lq_tmp_x230 Int) (p Int) 
(x0 Int)) 
 (=> (and (k_232 EQ_6U False_68 GT_6W LT_6S True_6u lq_tmp_x230 p x0) (and (= (select cmp EQ_6U) EQ_6U) (and (not (select Prop False_68)) (and (= (select cmp GT_6W) GT_6W) (and (= (select cmp LT_6S) LT_6S) (and (select Prop True_6u) (and (k_254 EQ_6U False_68 GT_6W LT_6S True_6u VV_F51 lq_tmp_x230 p x0) true))))))) (k_318 EQ_6U False_68 GT_6W LT_6S True_6u VV_F51 p x0)))
)


; cid = 50
(assert (forall ((EQ_6U Int) (False_68 Int) (GT_6W Int) 
(LT_6S Int) (Prop (Array Int Bool)) (True_6u Int) (VV_F50 Int) 
(cmp (Array Int Int)) (p Int) 
(x0 Int)) 
 (=> (and (= (select cmp EQ_6U) EQ_6U) (and (not (select Prop False_68)) (and (= (select cmp GT_6W) GT_6W) (and (= (select cmp LT_6S) LT_6S) (and (select Prop True_6u) (and (k_232 EQ_6U False_68 GT_6W LT_6S True_6u VV_F50 p x0) true)))))) (k_252 EQ_6U False_68 GT_6W LT_6S True_6u VV_F50 p x0)))
)


; cid = 48
(assert (forall ((EQ_6U Int) (False_68 Int) (GT_6W Int) 
(LT_6S Int) (Prop (Array Int Bool)) (True_6u Int) (VV_F48 Int) 
(cmp (Array Int Int)) (lq_tmp_x213 Int) (lq_tmp_x216 Int) (p Int) 
(x0 Int)) 
 (=> (and (k_215 EQ_6U False_68 GT_6W LT_6S True_6u lq_tmp_x213 p x0) (and (k_218 EQ_6U False_68 GT_6W LT_6S True_6u lq_tmp_x216 lq_tmp_x213 p x0) (and (= (select cmp EQ_6U) EQ_6U) (and (not (select Prop False_68)) (and (= (select cmp GT_6W) GT_6W) (and (= (select cmp LT_6S) LT_6S) (and (select Prop True_6u) (and (k_227 EQ_6U False_68 GT_6W LT_6S True_6u VV_F48 lq_tmp_x213 lq_tmp_x216 p x0) true)))))))) (k_269 EQ_6U False_68 GT_6W LT_6S True_6u VV_F48 lq_tmp_x213 lq_tmp_x216 p x0)))
)


; cid = 46
(assert (forall ((EQ_6U Int) (False_68 Int) (GT_6W Int) 
(LT_6S Int) (Prop (Array Int Bool)) (True_6u Int) (VV_F46 Int) 
(cmp (Array Int Int)) (lq_tmp_x213 Int) (lq_tmp_x216 Int) (p Int) 
(x0 Int)) 
 (=> (and (k_215 EQ_6U False_68 GT_6W LT_6S True_6u lq_tmp_x213 p x0) (and (k_218 EQ_6U False_68 GT_6W LT_6S True_6u lq_tmp_x216 lq_tmp_x213 p x0) (and (= (select cmp EQ_6U) EQ_6U) (and (not (select Prop False_68)) (and (= (select cmp GT_6W) GT_6W) (and (= (select cmp LT_6S) LT_6S) (and (select Prop True_6u) (and (k_264 EQ_6U False_68 GT_6W LT_6S True_6u VV_F46 lq_tmp_x213 lq_tmp_x216 p x0) true)))))))) (k_222 EQ_6U False_68 GT_6W LT_6S True_6u VV_F46 lq_tmp_x213 lq_tmp_x216 p x0)))
)


; cid = 45
(assert (forall ((EQ_6U Int) (False_68 Int) (GT_6W Int) 
(LT_6S Int) (Prop (Array Int Bool)) (True_6u Int) (VV_F45 Int) 
(cmp (Array Int Int)) (lq_tmp_x213 Int) (p Int) 
(x0 Int)) 
 (=> (and (k_215 EQ_6U False_68 GT_6W LT_6S True_6u lq_tmp_x213 p x0) (and (= (select cmp EQ_6U) EQ_6U) (and (not (select Prop False_68)) (and (= (select cmp GT_6W) GT_6W) (and (= (select cmp LT_6S) LT_6S) (and (select Prop True_6u) (and (k_218 EQ_6U False_68 GT_6W LT_6S True_6u VV_F45 lq_tmp_x213 p x0) true))))))) (k_260 EQ_6U False_68 GT_6W LT_6S True_6u VV_F45 lq_tmp_x213 p x0)))
)


; cid = 44
(assert (forall ((EQ_6U Int) (False_68 Int) (GT_6W Int) 
(LT_6S Int) (Prop (Array Int Bool)) (True_6u Int) (VV_F44 Int) 
(cmp (Array Int Int)) (p Int) 
(x0 Int)) 
 (=> (and (= (select cmp EQ_6U) EQ_6U) (and (not (select Prop False_68)) (and (= (select cmp GT_6W) GT_6W) (and (= (select cmp LT_6S) LT_6S) (and (select Prop True_6u) (and (k_215 EQ_6U False_68 GT_6W LT_6S True_6u VV_F44 p x0) true)))))) (k_257 EQ_6U False_68 GT_6W LT_6S True_6u VV_F44 p x0)))
)


; cid = 43
(assert (forall ((EQ_6U Int) (False_68 Int) (GT_6W Int) 
(LT_6S Int) (Prop (Array Int Bool)) (True_6u Int) (VV_F43 Int) 
(cmp (Array Int Int)) (lq_tmp_x250 Int) (p Int) 
(x0 Int)) 
 (=> (and (k_252 EQ_6U False_68 GT_6W LT_6S True_6u lq_tmp_x250 p x0) (and (= (select cmp EQ_6U) EQ_6U) (and (not (select Prop False_68)) (and (= (select cmp GT_6W) GT_6W) (and (= (select cmp LT_6S) LT_6S) (and (select Prop True_6u) (and (k_212 EQ_6U False_68 GT_6W LT_6S True_6u VV_F43 lq_tmp_x250 p x0) true))))))) (k_254 EQ_6U False_68 GT_6W LT_6S True_6u VV_F43 lq_tmp_x250 p x0)))
)


; cid = 42
(assert (forall ((EQ_6U Int) (False_68 Int) (GT_6W Int) 
(LT_6S Int) (Prop (Array Int Bool)) (True_6u Int) (VV_F42 Int) 
(cmp (Array Int Int)) (p Int) 
(x0 Int)) 
 (=> (and (= (select cmp EQ_6U) EQ_6U) (and (not (select Prop False_68)) (and (= (select cmp GT_6W) GT_6W) (and (= (select cmp LT_6S) LT_6S) (and (select Prop True_6u) (and (k_252 EQ_6U False_68 GT_6W LT_6S True_6u VV_F42 p x0) true)))))) (k_210 EQ_6U False_68 GT_6W LT_6S True_6u VV_F42 p x0)))
)


; cid = 40
(assert (forall ((EQ_6U Int) (False_68 Int) (GT_6W Int) 
(LT_6S Int) (Prop (Array Int Bool)) (True_6u Int) (VV_F40 Int) 
(cmp (Array Int Int)) (i Int) (n Int) (p Int) 
(x0 Int)) 
 (=> (and (= (select cmp EQ_6U) EQ_6U) (and (not (select Prop False_68)) (and (= (select cmp GT_6W) GT_6W) (and (= (select cmp LT_6S) LT_6S) (and (select Prop True_6u) (and (>= i 0) (and (< VV_F40 n) (and (<= 0 VV_F40) true)))))))) (k_227 EQ_6U False_68 GT_6W LT_6S True_6u VV_F40 i n p x0)))
)


; cid = 38
(assert (forall ((EQ_6U Int) (False_68 Int) (GT_6W Int) 
(LT_6S Int) (Prop (Array Int Bool)) (True_6u Int) (VV_F38 Int) 
(cmp (Array Int Int)) (i Int) (n Int) (p Int) 
(x0 Int)) 
 (=> (and (not (and (<= 0 VV_F38) (and (< VV_F38 i) true))) (and (= (select cmp EQ_6U) EQ_6U) (and (not (select Prop False_68)) (and (= (select cmp GT_6W) GT_6W) (and (= (select cmp LT_6S) LT_6S) (and (select Prop True_6u) (and (>= i 0) (and (k_222 EQ_6U False_68 GT_6W LT_6S True_6u VV_F38 i n p x0) true)))))))) false))
)


; cid = 37
(assert (forall ((EQ_6U Int) (False_68 Int) (GT_6W Int) 
(LT_6S Int) (Prop (Array Int Bool)) (True_6u Int) (VV_F37 Int) 
(cmp (Array Int Int)) (i Int) (p Int) 
(x0 Int)) 
 (=> (and (= (select cmp EQ_6U) EQ_6U) (and (not (select Prop False_68)) (and (= (select cmp GT_6W) GT_6W) (and (= (select cmp LT_6S) LT_6S) (and (select Prop True_6u) (and (>= i 0) true)))))) (k_218 EQ_6U False_68 GT_6W LT_6S True_6u VV_F37 i p x0)))
)


; cid = 36
(assert (forall ((EQ_6U Int) (False_68 Int) (GT_6W Int) 
(LT_6S Int) (Prop (Array Int Bool)) (True_6u Int) (VV_F36 Int) 
(cmp (Array Int Int)) (p Int) 
(x0 Int)) 
 (=> (and (= (select cmp EQ_6U) EQ_6U) (and (not (select Prop False_68)) (and (= (select cmp GT_6W) GT_6W) (and (= (select cmp LT_6S) LT_6S) (and (select Prop True_6u) (and (>= VV_F36 0) true)))))) (k_215 EQ_6U False_68 GT_6W LT_6S True_6u VV_F36 p x0)))
)


; cid = 35
(assert (forall ((EQ_6U Int) (False_68 Int) (GT_6W Int) 
(LT_6S Int) (Prop (Array Int Bool)) (True_6u Int) (VV_F35 Int) 
(cmp (Array Int Int)) (lq_tmp_x208 Int) (p Int) 
(papp2 (Array Int (Array Int (Array Int Bool)))) 
(x0 Int)) 
 (=> (and (k_210 EQ_6U False_68 GT_6W LT_6S True_6u lq_tmp_x208 p x0) (and (= (select cmp EQ_6U) EQ_6U) (and (not (select Prop False_68)) (and (= (select cmp GT_6W) GT_6W) (and (= (select cmp LT_6S) LT_6S) (and (select Prop True_6u) (and (select (select (select papp2 p) VV_F35) lq_tmp_x208) true))))))) (k_212 EQ_6U False_68 GT_6W LT_6S True_6u VV_F35 lq_tmp_x208 p x0)))
)
